c ind 1 2 3 4 5 6 7 8 9 10 11 12 13 14 15 16 17 18 19 20 0
p cnf 189 415               
1 -21 0
4 -21 0
-8 21 -30 0
30 -39 0
1 -22 0
5 -22 0
-9 22 -31 0
31 -39 0
1 -23 0
6 -23 0
-10 23 -32 0
32 -39 0
2 -24 0
4 -24 0
-11 24 -33 0
33 -39 0
2 -25 0
5 -25 0
-12 25 -34 0
34 -39 0
2 -26 0
6 -26 0
-13 26 -35 0
35 -39 0
3 -27 0
4 -27 0
-14 27 -36 0
36 -39 0
3 -28 0
5 -28 0
-15 28 -37 0
37 -39 0
3 -29 0
6 -29 0
-16 29 -38 0
38 -39 0
39 -74 0
-9 -8 -40 0
40 -44 0
-8 41 0
-9 41 0
-41 -10 -42 0
42 -44 0
44 -49 0
-8 4 -45 0
45 -48 0
-9 5 -46 0
46 -48 0
-10 6 -47 0
47 -48 0
48 -49 0
-1 49 -50 0
50 -73 0
-12 -11 -51 0
51 -55 0
-11 52 0
-12 52 0
-52 -13 -53 0
53 -55 0
55 -60 0
-11 4 -56 0
56 -59 0
-12 5 -57 0
57 -59 0
-13 6 -58 0
58 -59 0
59 -60 0
-2 60 -61 0
61 -73 0
-15 -14 -62 0
62 -66 0
-14 63 0
-15 63 0
-63 -16 -64 0
64 -66 0
66 -71 0
-14 4 -67 0
67 -70 0
-15 5 -68 0
68 -70 0
-16 6 -69 0
69 -70 0
70 -71 0
-3 71 -72 0
72 -73 0
73 -74 0
74 -91 0
-8 1 -75 0
75 -78 0
-11 2 -76 0
76 -78 0
-14 3 -77 0
77 -78 0
-4 78 -79 0
79 -90 0
-9 1 -80 0
80 -83 0
-12 2 -81 0
81 -83 0
-15 3 -82 0
82 -83 0
-5 83 -84 0
84 -90 0
-10 1 -85 0
85 -88 0
-13 2 -86 0
86 -88 0
-16 3 -87 0
87 -88 0
-6 88 -89 0
89 -90 0
90 -91 0
-7 91 -92 0
-10 43 0
-41 43 0
-43 93 0
-13 54 0
-52 54 0
-54 93 0
-16 65 0
-63 65 0
-65 93 0
-93 7 -94 0
17 -96 0
-17 7 -95 0
95 -96 0
96 -188 0
8 -97 0
17 -97 0
-8 -17 97 0
9 -98 0
17 -98 0
-9 -17 98 0
-97 -98 -106 0
97 98 -106 0
-98 98 -106 0
-97 98 106 0
97 -98 106 0
98 -98 106 0
10 -99 0
17 -99 0
-10 -17 99 0
-106 -99 -108 0
106 99 -108 0
-99 99 -108 0
-106 99 108 0
106 -99 108 0
99 -99 108 0
108 -115 0
11 -100 0
17 -100 0
-11 -17 100 0
12 -101 0
17 -101 0
-12 -17 101 0
-100 -101 -112 0
100 101 -112 0
-101 101 -112 0
-100 101 112 0
100 -101 112 0
101 -101 112 0
112 -115 0
-108 -112 115 0
99 -109 0
106 -109 0
-99 -106 109 0
97 -107 0
98 -107 0
-97 -98 107 0
-109 -107 -110 0
109 107 -110 0
-107 107 -110 0
-109 107 110 0
109 -107 110 0
107 -107 110 0
100 -113 0
101 -113 0
-100 -101 113 0
-110 -113 -116 0
110 113 -116 0
-113 113 -116 0
-110 113 116 0
110 -113 116 0
113 -113 116 0
-115 -116 -117 0
115 116 -117 0
-116 116 -117 0
-115 116 117 0
115 -116 117 0
116 -116 117 0
117 -138 0
13 -102 0
17 -102 0
-13 -17 102 0
14 -103 0
17 -103 0
-14 -17 103 0
-102 -103 -123 0
102 103 -123 0
-103 103 -123 0
-102 103 123 0
102 -103 123 0
103 -103 123 0
123 -128 0
15 -104 0
17 -104 0
-15 -17 104 0
16 -105 0
17 -105 0
-16 -17 105 0
-104 -105 -125 0
104 105 -125 0
-105 105 -125 0
-104 105 125 0
104 -105 125 0
105 -105 125 0
125 -128 0
-123 -125 128 0
102 -124 0
103 -124 0
-102 -103 124 0
104 -126 0
105 -126 0
-104 -105 126 0
-124 -126 -129 0
124 126 -129 0
-126 126 -129 0
-124 126 129 0
124 -126 129 0
126 -126 129 0
-128 -129 -130 0
128 129 -130 0
-129 129 -130 0
-128 129 130 0
128 -129 130 0
129 -129 130 0
130 -138 0
-117 -130 138 0
-138 140 0
-108 -112 -114 0
108 112 -114 0
-112 112 -114 0
-108 112 114 0
108 -112 114 0
112 -112 114 0
114 -135 0
-123 -125 -127 0
123 125 -127 0
-125 125 -127 0
-123 125 127 0
123 -125 127 0
125 -125 127 0
127 -135 0
-114 -127 135 0
135 -139 0
-117 -130 -136 0
117 130 -136 0
-130 130 -136 0
-117 130 136 0
117 -130 136 0
130 -130 136 0
136 -139 0
-135 -136 139 0
-139 140 0
138 139 -140 0
110 -118 0
113 -118 0
-110 -113 118 0
-118 120 0
115 -119 0
116 -119 0
-115 -116 119 0
-119 120 0
118 119 -120 0
107 -111 0
109 -111 0
-107 -109 111 0
-120 -111 -121 0
120 111 -121 0
-111 111 -121 0
-120 111 121 0
120 -111 121 0
111 -111 121 0
124 -131 0
126 -131 0
-124 -126 131 0
-131 133 0
128 -132 0
129 -132 0
-128 -129 132 0
-132 133 0
131 132 -133 0
-121 -133 -141 0
121 133 -141 0
-133 133 -141 0
-121 133 141 0
121 -133 141 0
133 -133 141 0
-140 -141 -142 0
140 141 -142 0
-141 141 -142 0
-140 141 142 0
140 -141 142 0
141 -141 142 0
-142 -149 0
-135 -136 -137 0
135 136 -137 0
-136 136 -137 0
142 137 146 0
-114 -127 -134 0
114 127 -134 0
-127 127 -134 0
-114 127 134 0
114 -127 134 0
127 -127 134 0
-146 134 -147 0
147 -149 0
149 -151 0
-134 137 142 -150 0
150 -151 0
151 -187 0
-18 1 -152 0
152 -155 0
-19 2 -153 0
153 -155 0
-20 3 -154 0
154 -155 0
155 -161 0
-19 -18 -156 0
156 -160 0
-18 157 0
-19 157 0
18 19 -157 0
-157 -20 -158 0
158 -160 0
20 157 -159 0
159 -160 0
160 -161 0
161 -186 0
18 -162 0
97 -162 0
-18 -97 162 0
-162 171 0
19 -165 0
100 -165 0
-19 -100 165 0
-165 171 0
20 -168 0
103 -168 0
-20 -103 168 0
-168 171 0
162 165 168 -171 0
171 -175 0
18 -163 0
98 -163 0
-18 -98 163 0
-163 172 0
19 -166 0
101 -166 0
-19 -101 166 0
-166 172 0
20 -169 0
104 -169 0
-20 -104 169 0
-169 172 0
163 166 169 -172 0
172 -175 0
-171 -172 175 0
175 -179 0
18 -164 0
99 -164 0
-18 -99 164 0
-164 173 0
19 -167 0
102 -167 0
-19 -102 167 0
-167 173 0
20 -170 0
105 -170 0
-20 -105 170 0
-170 173 0
164 167 170 -173 0
173 -177 0
-171 -172 -174 0
171 172 -174 0
-172 172 -174 0
-171 172 174 0
171 -172 174 0
172 -172 174 0
174 -177 0
-173 -174 177 0
177 -179 0
-175 -177 179 0
-179 -183 0
-177 -175 -178 0
177 175 -178 0
-175 175 -178 0
179 178 180 0
-174 -173 -176 0
174 173 -176 0
-173 173 -176 0
-174 173 176 0
174 -173 176 0
173 -173 176 0
-180 176 -181 0
181 -183 0
183 -185 0
-176 178 179 -184 0
184 -185 0
185 -186 0
186 -187 0
187 -188 0
92 0
94 0
188 0
